NAME : ClusterId_1014 
COMMENT : (Gillet and Johnson) 
TYPE : CVRP 
DIMENSION : 25 
EDGE_WEIGHT_TYPE : EUC_2D 
CAPACITY : 500 
NODE_COORD_SECTION 
1014 6186 4225 
602 8193 4681 
468 7962 4744 
163 7726 4877 
621 7662 4834 
757 7131 4994 
123 7737 4476 
934 7563 4605 
964 6854 5009 
887 6336 5000 
96 7552 4408 
235 6623 4816 
915 6460 4818 
360 6625 4670 
680 6308 4698 
412 6584 4611 
428 6954 4370 
604 6650 4512 
273 7225 4122 
978 6902 4255 
931 6080 4418 
734 6964 4033 
400 6832 3970 
451 7093 3492 
804 6842 3466 
DEMAND_SECTION 
1014 991
602 50
468 27
163 36
621 53
757 35
123 51
934 33
964 51
887 50
96 31
235 37
915 38
360 25
680 32
412 26
428 47
604 29
273 56
978 46
931 40
734 38
400 28
451 54
804 53
DEPOT_SECTION 
1014
 -1
EOF